1 2 1 1 1 1 15 17 18 8
2 1 1 2 1 3 1 13 0 9
3 2 1 1 1 1 3 15 22 0
4 4 1 2 1 2 13 0 20 6
5 5 1 1 5 1 2 11 12 5
6 2 1 7 1 3 11 4 19 1
7 3 1 1 1 1 14 16 17 12
8 9 1 2 1 2 12 18 21 13
9 2 1 1 5 1 10 12 5 4
